c CNF-Signature NOR_27
c 
c $p 27 1
c $m (1,2,3,4,5,6,7,8,9,10,11,12,13,14,15,16,17,18,19,20,21,22,23,24,25,26,27,28)
c $i 1
c $i 2
c $i 3
c $i 4
c $i 5
c $i 6
c $i 7
c $i 8
c $i 9
c $i 10
c $i 11
c $i 12
c $i 13
c $i 14
c $i 15
c $i 16
c $i 17
c $i 18
c $i 19
c $i 20
c $i 21
c $i 22
c $i 23
c $i 24
c $i 25
c $i 26
c $i 27
c $o 28
p cnf 28 28
-1 -28 0
-2 -28 0
-3 -28 0
-4 -28 0
-5 -28 0
-6 -28 0
-7 -28 0
-8 -28 0
-9 -28 0
-10 -28 0
-11 -28 0
-12 -28 0
-13 -28 0
-14 -28 0
-15 -28 0
-16 -28 0
-17 -28 0
-18 -28 0
-19 -28 0
-20 -28 0
-21 -28 0
-22 -28 0
-23 -28 0
-24 -28 0
-25 -28 0
-26 -28 0
-27 -28 0
1 2 3 4 5 6 7 8 9 10 11 12 13 14 15 16 17 18 19 20 21 22 23 24 25 26 27 28 0
